NAME          ClpDefau  FREE
ROWS
 N  OBJROW
 L  ZMUNI1_PCT
 L  ZMUNI2_PCT
 L  ZMUNI3_PCT
 L  ZMUNI4_PCT
 L  ZMUNI5_PCT
 L  ZMUNI6_PCT
 L  ZMUNI7_PCT
 L  ZMUNI8_PCT
 L  ZMUNI9_PCT
COLUMNS
    QMUNI1 OBJROW 1.          
    QMUNI1 ZMUNI1_PCT 28356.3614  
    QMUNI1 ZMUNI2_PCT 2030.51567  
    QMUNI1 ZMUNI3_PCT 4779.67263  
    QMUNI1 ZMUNI4_PCT 3382.8735   
    QMUNI1 ZMUNI5_PCT  -99.37287  
    QMUNI1 ZMUNI6_PCT 158.7868    
    QMUNI1 ZMUNI7_PCT 1741.90998  
    QMUNI1 ZMUNI8_PCT 1516.17527  
    QMUNI1 ZMUNI9_PCT 767.37404   
    QMUNI2 OBJROW 1.          
    QMUNI2 ZMUNI1_PCT 1657.1998   
    QMUNI2 ZMUNI2_PCT 32321.64383 
    QMUNI2 ZMUNI3_PCT 2521.801    
    QMUNI2 ZMUNI4_PCT 2618.4082   
    QMUNI2 ZMUNI5_PCT  -174.33167 
    QMUNI2 ZMUNI6_PCT  -148.3917  
    QMUNI2 ZMUNI7_PCT 137.06684   
    QMUNI2 ZMUNI8_PCT 368.24942   
    QMUNI2 ZMUNI9_PCT 225.16251   
    QMUNI3 OBJROW 1.          
    QMUNI3 ZMUNI1_PCT 4102.8023   
    QMUNI3 ZMUNI2_PCT 2282.66716  
    QMUNI3 ZMUNI3_PCT 29074.85962 
    QMUNI3 ZMUNI4_PCT 4916.954    
    QMUNI3 ZMUNI5_PCT  -636.10077 
    QMUNI3 ZMUNI6_PCT  -489.7117  
    QMUNI3 ZMUNI7_PCT 211.76338   
    QMUNI3 ZMUNI8_PCT 142.00211   
    QMUNI3 ZMUNI9_PCT  -648.45085 
    QMUNI4 OBJROW 1.          
    QMUNI4 ZMUNI1_PCT 3512.764    
    QMUNI4 ZMUNI2_PCT 3062.77275  
    QMUNI4 ZMUNI3_PCT 5893.85033  
    QMUNI4 ZMUNI4_PCT 97887.8021  
    QMUNI4 ZMUNI5_PCT  -286.19766 
    QMUNI4 ZMUNI6_PCT  -175.5714  
    QMUNI4 ZMUNI7_PCT 651.00193   
    QMUNI4 ZMUNI8_PCT 691.52117   
    QMUNI4 ZMUNI9_PCT 175.28534   
    QMUNI5 OBJROW 1.          
    QMUNI5 ZMUNI1_PCT  -439.6439  
    QMUNI5 ZMUNI2_PCT  -541.35323 
    QMUNI5 ZMUNI3_PCT  -489.09187 
    QMUNI5 ZMUNI4_PCT  -433.3496  
    QMUNI5 ZMUNI5_PCT 29087.92496 
    QMUNI5 ZMUNI6_PCT 1968.6699   
    QMUNI5 ZMUNI7_PCT  -1100.32559
    QMUNI5 ZMUNI8_PCT  -1261.83033
    QMUNI5 ZMUNI9_PCT  -1452.92282
    QMUNI6 OBJROW 1.          
    QMUNI6 ZMUNI1_PCT  -140.3809  
    QMUNI6 ZMUNI2_PCT  -353.86086 
    QMUNI6 ZMUNI3_PCT  -223.87504 
    QMUNI6 ZMUNI4_PCT  -214.386   
    QMUNI6 ZMUNI5_PCT 2017.30728  
    QMUNI6 ZMUNI6_PCT 29278.7552  
    QMUNI6 ZMUNI7_PCT  -810.81391 
    QMUNI6 ZMUNI8_PCT  -1089.40601
    QMUNI6 ZMUNI9_PCT  -1378.44086
    QMUNI7 OBJROW 1.          
    QMUNI7 ZMUNI1_PCT 1093.6737   
    QMUNI7 ZMUNI2_PCT 393.67675   
    QMUNI7 ZMUNI3_PCT 889.20594   
    QMUNI7 ZMUNI4_PCT 586.1282    
    QMUNI7 ZMUNI5_PCT  -603.19901 
    QMUNI7 ZMUNI6_PCT  -385.5705  
    QMUNI7 ZMUNI7_PCT 24315.78636 
    QMUNI7 ZMUNI8_PCT 1000.79775  
    QMUNI7 ZMUNI9_PCT  -709.39064 
    QMUNI8 OBJROW 1.          
    QMUNI8 ZMUNI1_PCT 750.8278    
    QMUNI8 ZMUNI2_PCT 520.51544   
    QMUNI8 ZMUNI3_PCT 777.91214   
    QMUNI8 ZMUNI4_PCT 571.6324    
    QMUNI8 ZMUNI5_PCT  -902.46201 
    QMUNI8 ZMUNI6_PCT  -827.6939  
    QMUNI8 ZMUNI7_PCT 649.07073   
    QMUNI8 ZMUNI8_PCT 23383.921387
    QMUNI8 ZMUNI9_PCT  -357.19871 
    QMUNI9 OBJROW 1.          
    QMUNI9 ZMUNI1_PCT 32.9971     
    QMUNI9 ZMUNI2_PCT 385.47516   
    QMUNI9 ZMUNI3_PCT 147.77184   
    QMUNI9 ZMUNI4_PCT 121.3074    
    QMUNI9 ZMUNI5_PCT  -790.59601 
    QMUNI9 ZMUNI6_PCT  -775.3372  
    QMUNI9 ZMUNI7_PCT  -576.85376 
    QMUNI9 ZMUNI8_PCT  -47.17111  
    QMUNI9 ZMUNI9_PCT 22204.58984 
RHS
    RHS ZMUNI1_PCT 2.1643141333
    RHS ZMUNI2_PCT 0.7754432621
    RHS ZMUNI3_PCT -0.071178417
    RHS ZMUNI4_PCT 2.8248720562
    RHS ZMUNI5_PCT 6.2236040802
    RHS ZMUNI6_PCT 6.8808986097
    RHS ZMUNI7_PCT 5.5594751391
    RHS ZMUNI8_PCT 8.088421668 
    RHS ZMUNI9_PCT 12.699307083
BOUNDS
 LO BOUND QMUNI1 -0.001636007
 UP BOUND QMUNI1      1.1e+10
 LO BOUND QMUNI2 -0.001167806
 UP BOUND QMUNI2      1.1e+10
 LO BOUND QMUNI3 -0.001251214
 UP BOUND QMUNI3      1.1e+10
 LO BOUND QMUNI4 -0.000442563
 UP BOUND QMUNI4      1.1e+10
 LO BOUND QMUNI5 -0.001266776
 UP BOUND QMUNI5      1.1e+10
 LO BOUND QMUNI6 -0.001460344
 UP BOUND QMUNI6      1.1e+10
 LO BOUND QMUNI7 -0.00107811 
 UP BOUND QMUNI7      1.1e+10
 LO BOUND QMUNI8 -0.001174479
 UP BOUND QMUNI8      1.1e+10
 LO BOUND QMUNI9 -0.001507624
 UP BOUND QMUNI9      1.1e+10
ENDATA
